(set-logic QF_NRA)
(declare-fun duscore1dollarsk_0 () Real)
(declare-fun b () Real)
(declare-fun m () Real)
(declare-fun d () Real)
(declare-fun muscore1dollarsk_1 () Real)
(declare-fun vdesuscore1dollarsk_2 () Real)
(assert (let ((a_1 (+ (* 4.0 (* d d)) (* 8.0 (* b m))))
              (a_2 (+ (* 4.0 (* d d))
                      (* (- 4.0) (* duscore1dollarsk_0 duscore1dollarsk_0))
                      (* 8.0 (* b m))
                      (* (- 8.0) (* b muscore1dollarsk_1)))))
          (or (not (>= a_1 0.0))
              (= b 0.0)
              (and (or (= b 0.0) (= a_2 0.0) (not (>= a_2 0.0)))
                   (or (and (not (= (+ (* 2.0 (* d d))
                                       (* (- 2.0)
                                          (* duscore1dollarsk_0
                                             duscore1dollarsk_0))
                                       (* 4.0 (* b m))
                                       (* (- 4.0) (* b muscore1dollarsk_1)))
                                    0.0))
                            (not (= b 0.0)))
                       (= b 0.0)
                       (not (<= b 0.0)))
                   (not (= b 0.0)))
              (and (not (<= a_1 0.0)) (not (>= a_1 0.0)))
              (and (or (= b 0.0) (not (>= b 0.0))) (>= duscore1dollarsk_0 0.0)))))
(assert (>= vdesuscore1dollarsk_2 0.0))
(assert (>= d 0.0))
(assert (not (<= b 0.0)))
(assert (not (<= (+ (* d d) (* (- 1.0) duscore1dollarsk_0 duscore1dollarsk_0))
                 (* 2.0 b (+ muscore1dollarsk_1 (* (- 1.0) m))))))
(assert (let ((a_1 (+ (* 4.0 (* d d)) (* 8.0 (* b m))))
              (a_2 (+ (* 4.0 (* d d))
                      (* (- 4.0) (* duscore1dollarsk_0 duscore1dollarsk_0))
                      (* 8.0 (* b m))
                      (* (- 8.0) (* b muscore1dollarsk_1)))))
          (or (not (>= a_1 0.0))
              (= b 0.0)
              (and (or (= b 0.0) (= a_2 0.0) (not (>= a_2 0.0)))
                   (or (and (not (= (+ (* 2.0 (* d d))
                                       (* (- 2.0)
                                          (* duscore1dollarsk_0
                                             duscore1dollarsk_0))
                                       (* 4.0 (* b m))
                                       (* (- 4.0) (* b muscore1dollarsk_1)))
                                    0.0))
                            (not (= b 0.0)))
                       (= b 0.0)
                       (not (<= b 0.0)))
                   (not (= b 0.0)))
              (not (<= a_1 0.0))
              (and (or (= b 0.0) (not (>= b 0.0)))
                   (<= a_1 0.0)
                   (>= duscore1dollarsk_0 0.0)))))
(assert (let ((a_1 (+ (* 4.0 (* d d))
                      (* (- 4.0) (* duscore1dollarsk_0 duscore1dollarsk_0))
                      (* 8.0 (* b m))
                      (* (- 8.0) (* b muscore1dollarsk_1)))))
          (or (= b 0.0)
              (and (or (= b 0.0) (= a_1 0.0) (not (>= a_1 0.0)))
                   (or (and (not (= (+ (* 2.0 (* d d))
                                       (* (- 2.0)
                                          (* duscore1dollarsk_0
                                             duscore1dollarsk_0))
                                       (* 4.0 (* b m))
                                       (* (- 4.0) (* b muscore1dollarsk_1)))
                                    0.0))
                            (not (= b 0.0)))
                       (= b 0.0)
                       (not (<= b 0.0)))
                   (or (not (= (+ (* d d) (* 2.0 (* b m))) 0.0))
                       (not (= b 0.0))))
              (and (or (= b 0.0) (not (>= b 0.0))) (>= duscore1dollarsk_0 0.0)))))
(assert (let ((a_1 (+ (* 4.0 (* duscore1dollarsk_0 duscore1dollarsk_0))
                      (* 8.0 (* b muscore1dollarsk_1))))
              (a_2 (<= (+ (* 4.0 d d)
                          (* (- 4.0) (* duscore1dollarsk_0 duscore1dollarsk_0))
                          (* 8.0 b m)
                          (* (- 8.0) (* b muscore1dollarsk_1)))
                       0.0))
              (a_3 (+ (* 16.0 d d d d)
                      (* (- 32.0) d d duscore1dollarsk_0 duscore1dollarsk_0)
                      (* 64.0 b d d m)
                      (* (- 64.0) b d d muscore1dollarsk_1)
                      (* 16.0
                         duscore1dollarsk_0
                         duscore1dollarsk_0
                         duscore1dollarsk_0
                         duscore1dollarsk_0)
                      (* (- 64.0) b duscore1dollarsk_0 duscore1dollarsk_0 m)
                      (* 64.0
                         b
                         duscore1dollarsk_0
                         duscore1dollarsk_0
                         muscore1dollarsk_1)
                      (* 64.0 b b m m)
                      (* (- 128.0) b b m muscore1dollarsk_1)
                      (* 64.0 b b muscore1dollarsk_1 muscore1dollarsk_1)))
              (a_4 (+ (* 16.0 (* duscore1dollarsk_0 duscore1dollarsk_0))
                      (* 32.0 (* b muscore1dollarsk_1)))))
          (or (not (>= a_1 0.0))
              (and (or (= b 0.0) (not (>= b 0.0)))
                   (or (not (= b 0.0))
                       (and (or a_2 (<= a_3 0.0)) a_2 (>= a_3 0.0))))
              (and (<= a_1 0.0) (not (= a_1 0.0)))
              (and (or (= b 0.0) (not (<= b 0.0)))
                   (or (not (= b 0.0)) (and (<= a_4 0.0) (not (= a_4 0.0))))
                   (>= duscore1dollarsk_0 0.0)))))
(assert (let ((a_1 (+ (* 4.0 (* duscore1dollarsk_0 duscore1dollarsk_0))
                      (* 8.0 (* b muscore1dollarsk_1))))
              (a_2 (<= (+ (* 4.0 d d)
                          (* (- 4.0) (* duscore1dollarsk_0 duscore1dollarsk_0))
                          (* 8.0 b m)
                          (* (- 8.0) (* b muscore1dollarsk_1)))
                       0.0))
              (a_3 (+ (* 16.0 d d d d)
                      (* (- 32.0) d d duscore1dollarsk_0 duscore1dollarsk_0)
                      (* 64.0 b d d m)
                      (* (- 64.0) b d d muscore1dollarsk_1)
                      (* 16.0
                         duscore1dollarsk_0
                         duscore1dollarsk_0
                         duscore1dollarsk_0
                         duscore1dollarsk_0)
                      (* (- 64.0) b duscore1dollarsk_0 duscore1dollarsk_0 m)
                      (* 64.0
                         b
                         duscore1dollarsk_0
                         duscore1dollarsk_0
                         muscore1dollarsk_1)
                      (* 64.0 b b m m)
                      (* (- 128.0) b b m muscore1dollarsk_1)
                      (* 64.0 b b muscore1dollarsk_1 muscore1dollarsk_1)))
              (a_4 (+ (* 16.0 (* duscore1dollarsk_0 duscore1dollarsk_0))
                      (* 32.0 (* b muscore1dollarsk_1)))))
          (or (not (>= a_1 0.0))
              (and (or (= b 0.0) (not (>= b 0.0)))
                   (or (not (= b 0.0))
                       (and (or a_2 (<= a_3 0.0))
                            a_2
                            (>= a_3 0.0)
                            (or (not (= a_3 0.0)) (<= a_4 0.0)))))
              (not (= a_1 0.0))
              (and (or (= b 0.0) (not (<= b 0.0)))
                   (or (not (= b 0.0)) (not (= a_4 0.0)))
                   (<= a_1 0.0)
                   (>= duscore1dollarsk_0 0.0)))))
(assert (let ((a_1 (not (>= (+ (* 4.0 d d) (* 8.0 b m)) 0.0)))
              (a_2 (<= (+ (* 4.0 d d)
                          (* (- 4.0) duscore1dollarsk_0 duscore1dollarsk_0)
                          (* 8.0 b m)
                          (* (- 8.0) b muscore1dollarsk_1))
                       0.0))
              (a_3 (+ (* 16.0 d d d d)
                      (* (- 32.0) d d duscore1dollarsk_0 duscore1dollarsk_0)
                      (* 64.0 b d d m)
                      (* (- 64.0) b d d muscore1dollarsk_1)
                      (* 16.0
                         duscore1dollarsk_0
                         duscore1dollarsk_0
                         duscore1dollarsk_0
                         duscore1dollarsk_0)
                      (* (- 64.0) b duscore1dollarsk_0 duscore1dollarsk_0 m)
                      (* 64.0
                         b
                         duscore1dollarsk_0
                         duscore1dollarsk_0
                         muscore1dollarsk_1)
                      (* 64.0 b b m m)
                      (* (- 128.0) b b m muscore1dollarsk_1)
                      (* 64.0 b b muscore1dollarsk_1 muscore1dollarsk_1))))
          (or a_1
              (and (or (= b 0.0) (not (>= b 0.0))) (not (= b 0.0)))
              (and (not (<= (+ (* 4.0 d d) (* 8.0 b m)) 0.0)) a_1)
              (and (or (= b 0.0) (not (<= b 0.0)))
                   (or (not (= b 0.0))
                       (and (or a_2 (<= a_3 0.0)) a_2 (>= a_3 0.0)))
                   (>= duscore1dollarsk_0 0.0)))))
(assert (let ((a_1 (<= (+ (* 4.0 d d) (* 8.0 b m)) 0.0))
              (a_2 (<= (+ (* 4.0 d d)
                          (* (- 4.0) duscore1dollarsk_0 duscore1dollarsk_0)
                          (* 8.0 b m)
                          (* (- 8.0) b muscore1dollarsk_1))
                       0.0))
              (a_3 (+ (* 16.0 d d d d)
                      (* (- 32.0) d d duscore1dollarsk_0 duscore1dollarsk_0)
                      (* 64.0 b d d m)
                      (* (- 64.0) b d d muscore1dollarsk_1)
                      (* 16.0
                         duscore1dollarsk_0
                         duscore1dollarsk_0
                         duscore1dollarsk_0
                         duscore1dollarsk_0)
                      (* (- 64.0) b duscore1dollarsk_0 duscore1dollarsk_0 m)
                      (* 64.0
                         b
                         duscore1dollarsk_0
                         duscore1dollarsk_0
                         muscore1dollarsk_1)
                      (* 64.0 b b m m)
                      (* (- 128.0) b b m muscore1dollarsk_1)
                      (* 64.0 b b muscore1dollarsk_1 muscore1dollarsk_1))))
          (or (not (>= (+ (* 4.0 d d) (* 8.0 b m)) 0.0))
              (and (or (= b 0.0) (not (>= b 0.0))) (not (= b 0.0)))
              (not a_1)
              (and (or (= b 0.0) (not (<= b 0.0)))
                   (or (not (= b 0.0))
                       (and (or a_2 (<= a_3 0.0)) a_2 (>= a_3 0.0)))
                   a_1
                   (>= duscore1dollarsk_0 0.0)))))
(assert (or (and (or (= b 0.0) (not (>= b 0.0)))
                 (or (not (= b 0.0)) (<= (+ (* d d) (* 2.0 b m)) 0.0))
                 (or (not (= (+ (* d d) (* 2.0 b m)) 0.0)) (not (= b 0.0))))
            (and (or (= b 0.0) (not (<= b 0.0)))
                 (or (not (= b 0.0))
                     (>= (+ (* duscore1dollarsk_0 duscore1dollarsk_0)
                            (* 2.0 b muscore1dollarsk_1))
                         0.0))
                 (>= duscore1dollarsk_0 0.0))))
(assert (let ((a_1 (+ (* 4.0 d d)
                      (* (- 4.0) duscore1dollarsk_0 duscore1dollarsk_0)
                      (* 8.0 b m)
                      (* (- 8.0) b muscore1dollarsk_1))))
          (or (= b 0.0)
              (and (or (= b 0.0) (= a_1 0.0) (not (>= a_1 0.0)))
                   (>= duscore1dollarsk_0 0.0)))))
(check-sat)
(exit)
